experiments/knapsack_bounded/knapsack_bounded_30_6.mps
NAME
ROWS
 N  OBJ
 L  c1
 L  c2
 L  c3
 L  c4
 L  c5
 L  c6
 L  c7
 L  c8
 L  c9
 L  c10
 L  c11
 L  c12
 L  c13
 L  c14
 L  c15
 L  c16
 L  c17
 L  c18
 L  c19
 L  c20
 L  c21
 L  c22
 L  c23
 L  c24
 L  c25
 L  c26
 L  c27
 L  c28
 L  c29
 L  c30
 L  c31
COLUMNS
    MARKER    'MARKER'                 'INTORG'
    x[1]      c1        909
    x[1]      c2        1
    x[1]      OBJ       -267
    x[2]      c1        783
    x[2]      c3        1
    x[2]      OBJ       -820
    x[3]      c1        583
    x[3]      c4        1
    x[3]      OBJ       -130
    x[4]      c1        167
    x[4]      c5        1
    x[4]      OBJ       -39
    x[5]      c1        597
    x[5]      c6        1
    x[5]      OBJ       -890
    x[6]      c1        767
    x[6]      c7        1
    x[6]      OBJ       -266
    x[7]      c1        637
    x[7]      c8        1
    x[7]      OBJ       -717
    x[8]      c1        349
    x[8]      c9        1
    x[8]      OBJ       -226
    x[9]      c1        65
    x[9]      c10       1
    x[9]      OBJ       -763
    x[10]     c1        24
    x[10]     c11       1
    x[10]     OBJ       -741
    x[11]     c1        329
    x[11]     c12       1
    x[11]     OBJ       -715
    x[12]     c1        289
    x[12]     c13       1
    x[12]     OBJ       -337
    x[13]     c1        679
    x[13]     c14       1
    x[13]     OBJ       -838
    x[14]     c1        794
    x[14]     c15       1
    x[14]     OBJ       -574
    x[15]     c1        821
    x[15]     c16       1
    x[15]     OBJ       -513
    x[16]     c1        817
    x[16]     c17       1
    x[16]     OBJ       -338
    x[17]     c1        757
    x[17]     c18       1
    x[17]     OBJ       -610
    x[18]     c1        590
    x[18]     c19       1
    x[18]     OBJ       -421
    x[19]     c1        956
    x[19]     c20       1
    x[19]     OBJ       -251
    x[20]     c1        233
    x[20]     c21       1
    x[20]     OBJ       -842
    x[21]     c1        271
    x[21]     c22       1
    x[21]     OBJ       -411
    x[22]     c1        363
    x[22]     c23       1
    x[22]     OBJ       -281
    x[23]     c1        440
    x[23]     c24       1
    x[23]     OBJ       -143
    x[24]     c1        80
    x[24]     c25       1
    x[24]     OBJ       -501
    x[25]     c1        228
    x[25]     c26       1
    x[25]     OBJ       -616
    x[26]     c1        473
    x[26]     c27       1
    x[26]     OBJ       -140
    x[27]     c1        488
    x[27]     c28       1
    x[27]     OBJ       -633
    x[28]     c1        430
    x[28]     c29       1
    x[28]     OBJ       -664
    x[29]     c1        338
    x[29]     c30       1
    x[29]     OBJ       -591
    x[30]     c1        393
    x[30]     c31       1
    x[30]     OBJ       -305
    MARKER    'MARKER'                 'INTEND'
RHS
    rhs       c1        7325
    rhs       c2        10
    rhs       c3        9
    rhs       c4        7
    rhs       c5        4
    rhs       c6        8
    rhs       c7        3
    rhs       c8        4
    rhs       c9        5
    rhs       c10       10
    rhs       c11       1
    rhs       c12       9
    rhs       c13       1
    rhs       c14       2
    rhs       c15       7
    rhs       c16       2
    rhs       c17       8
    rhs       c18       5
    rhs       c19       10
    rhs       c20       5
    rhs       c21       4
    rhs       c22       9
    rhs       c23       9
    rhs       c24       6
    rhs       c25       3
    rhs       c26       7
    rhs       c27       9
    rhs       c28       2
    rhs       c29       5
    rhs       c30       5
    rhs       c31       5
RANGES
BOUNDS
 LO bounds    x[1]      0
 PL bounds    x[1]
 LO bounds    x[2]      0
 PL bounds    x[2]
 LO bounds    x[3]      0
 PL bounds    x[3]
 LO bounds    x[4]      0
 PL bounds    x[4]
 LO bounds    x[5]      0
 PL bounds    x[5]
 LO bounds    x[6]      0
 PL bounds    x[6]
 LO bounds    x[7]      0
 PL bounds    x[7]
 LO bounds    x[8]      0
 PL bounds    x[8]
 LO bounds    x[9]      0
 PL bounds    x[9]
 LO bounds    x[10]     0
 PL bounds    x[10]
 LO bounds    x[11]     0
 PL bounds    x[11]
 LO bounds    x[12]     0
 PL bounds    x[12]
 LO bounds    x[13]     0
 PL bounds    x[13]
 LO bounds    x[14]     0
 PL bounds    x[14]
 LO bounds    x[15]     0
 PL bounds    x[15]
 LO bounds    x[16]     0
 PL bounds    x[16]
 LO bounds    x[17]     0
 PL bounds    x[17]
 LO bounds    x[18]     0
 PL bounds    x[18]
 LO bounds    x[19]     0
 PL bounds    x[19]
 LO bounds    x[20]     0
 PL bounds    x[20]
 LO bounds    x[21]     0
 PL bounds    x[21]
 LO bounds    x[22]     0
 PL bounds    x[22]
 LO bounds    x[23]     0
 PL bounds    x[23]
 LO bounds    x[24]     0
 PL bounds    x[24]
 LO bounds    x[25]     0
 PL bounds    x[25]
 LO bounds    x[26]     0
 PL bounds    x[26]
 LO bounds    x[27]     0
 PL bounds    x[27]
 LO bounds    x[28]     0
 PL bounds    x[28]
 LO bounds    x[29]     0
 PL bounds    x[29]
 LO bounds    x[30]     0
 PL bounds    x[30]
ENDATA
